param n := 120;
param c := 3000
param : V : p w :=
   0	  65	 470
   1	  65	 254
   2	   2	 276
   3	  76	 393
   4	  78	 271
   5	  38	 336
   6	  95	 354
   7	  33	 282
   8	   7	 364
   9	  39	 366
  10	  70	 262
  11	  23	 372
  12	  88	 418
  13	  99	 265
  14	  62	 317
  15	  60	 442
  16	  10	 257
  17	  40	 301
  18	  43	 463
  19	  64	 252
  20	  91	 285
  21	  22	 447
  22	  57	 254
  23	  96	 299
  24	  74	 473
  25	  14	 250
  26	  40	 277
  27	  54	 412
  28	  54	 272
  29	  85	 316
  30	  15	 351
  31	  34	 253
  32	  10	 396
  33	 100	 415
  34	   4	 289
  35	  39	 296
  36	 100	 403
  37	  78	 268
  38	  99	 329
  39	  62	 381
  40	  77	 295
  41	  26	 324
  42	  61	 397
  43	  16	 299
  44	  73	 304
  45	  43	 499
  46	  94	 250
  47	  26	 251
  48	  56	 457
  49	  44	 255
  50	   2	 288
  51	  57	 437
  52	  11	 278
  53	  14	 285
  54	   7	 354
  55	  16	 298
  56	  87	 348
  57	  64	 412
  58	  94	 265
  59	  46	 323
  60	   3	 419
  61	  51	 277
  62	  96	 304
  63	  36	 471
  64	  77	 252
  65	  39	 277
  66	   9	 434
  67	  16	 279
  68	  33	 287
  69	  46	 354
  70	   8	 256
  71	  79	 390
  72	  71	 476
  73	  71	 255
  74	  12	 269
  75	  71	 480
  76	  71	 254
  77	  46	 266
  78	  43	 418
  79	  34	 254
  80	  18	 328
  81	  15	 369
  82	  43	 280
  83	  87	 351
  84	  27	 411
  85	  43	 265
  86	  75	 324
  87	  41	 432
  88	  24	 278
  89	  72	 290
  90	  83	 406
  91	  41	 273
  92	   2	 321
  93	  39	 439
  94	  49	 274
  95	  98	 287
  96	  72	 393
  97	  30	 261
  98	  65	 346
  99	  87	 444
 100	  16	 255
 101	  44	 301
 102	  55	 499
 103	  14	 250
 104	  54	 251
 105	  43	 439
 106	   2	 261
 107	  69	 300
 108	  25	 374
 109	  71	 306
 110	  30	 320
 111	  72	 467
 112	  22	 257
 113	  41	 276
 114	  25	 410
 115	  52	 274
 116	  20	 316
 117	  86	 405
 118	  26	 294
 119	  92	 301
;

set E :=
   0	   5
   0	  11
   0	  12
   0	  14
   0	  18
   0	  19
   0	  20
   0	  25
   0	  31
   0	  40
   0	  42
   0	  45
   0	  50
   0	  54
   0	  59
   0	  66
   0	  73
   0	  78
   0	  80
   0	  85
   0	  88
   0	 104
   0	 105
   0	 107
   0	 111
   0	 112
   1	   2
   1	   5
   1	   9
   1	  13
   1	  15
   1	  21
   1	  23
   1	  25
   1	  31
   1	  39
   1	  44
   1	  47
   1	  54
   1	  57
   1	  58
   1	  59
   1	  63
   1	  67
   1	  69
   1	  74
   1	  76
   1	  78
   1	  79
   1	  80
   1	  82
   1	  86
   1	  88
   1	  89
   1	  90
   1	  93
   1	 101
   1	 102
   1	 106
   1	 108
   1	 119
   2	   4
   2	   7
   2	  12
   2	  13
   2	  17
   2	  25
   2	  27
   2	  31
   2	  33
   2	  59
   2	  63
   2	  64
   2	  65
   2	  71
   2	  82
   2	  85
   2	  90
   2	  95
   2	 103
   2	 104
   2	 115
   2	 116
   2	 117
   2	 118
   3	   5
   3	   7
   3	  11
   3	  28
   3	  29
   3	  35
   3	  37
   3	  38
   3	  42
   3	  43
   3	  46
   3	  52
   3	  61
   3	  69
   3	  73
   3	  77
   3	  81
   3	  82
   3	  89
   3	  90
   3	  92
   3	  93
   3	  99
   3	 102
   3	 106
   3	 113
   3	 118
   4	  13
   4	  19
   4	  22
   4	  32
   4	  43
   4	  47
   4	  49
   4	  51
   4	  54
   4	  58
   4	  61
   4	  63
   4	  70
   4	  71
   4	  77
   4	  86
   4	  96
   4	  98
   4	  99
   4	 100
   4	 105
   4	 107
   4	 113
   4	 117
   4	 119
   5	   7
   5	   8
   5	  12
   5	  15
   5	  16
   5	  18
   5	  19
   5	  21
   5	  28
   5	  30
   5	  36
   5	  42
   5	  43
   5	  54
   5	  62
   5	  63
   5	  66
   5	  69
   5	  75
   5	  76
   5	  79
   5	  80
   5	  83
   5	  86
   5	  88
   5	  89
   5	  90
   5	  98
   5	 105
   5	 118
   6	  19
   6	  21
   6	  27
   6	  38
   6	  42
   6	  45
   6	  46
   6	  55
   6	  57
   6	  64
   6	  70
   6	  71
   6	  73
   6	  78
   6	  81
   6	  83
   6	  86
   6	  97
   6	 114
   6	 119
   7	   9
   7	  10
   7	  25
   7	  33
   7	  35
   7	  36
   7	  44
   7	  55
   7	  62
   7	  66
   7	  71
   7	  72
   7	  86
   7	  90
   7	  91
   7	  96
   7	  97
   7	  98
   7	 101
   7	 105
   7	 107
   7	 108
   7	 119
   8	  16
   8	  22
   8	  24
   8	  26
   8	  32
   8	  35
   8	  40
   8	  41
   8	  42
   8	  56
   8	  63
   8	  65
   8	  69
   8	  76
   8	  77
   8	  80
   8	  81
   8	  87
   8	  90
   8	  93
   8	  98
   8	  99
   8	 107
   9	  12
   9	  17
   9	  19
   9	  31
   9	  35
   9	  38
   9	  47
   9	  48
   9	  51
   9	  55
   9	  65
   9	  66
   9	  68
   9	  78
   9	  80
   9	  82
   9	  88
   9	  96
   9	  98
   9	 100
   9	 107
   9	 109
   9	 114
   9	 115
  10	  13
  10	  16
  10	  27
  10	  33
  10	  44
  10	  47
  10	  49
  10	  55
  10	  58
  10	  61
  10	  74
  10	  77
  10	  79
  10	  88
  10	  91
  10	  97
  10	 100
  10	 104
  10	 115
  11	  12
  11	  18
  11	  19
  11	  22
  11	  40
  11	  44
  11	  47
  11	  52
  11	  60
  11	  77
  11	  82
  11	  84
  11	  92
  11	  96
  11	  98
  11	 103
  12	  14
  12	  24
  12	  25
  12	  31
  12	  43
  12	  52
  12	  53
  12	  64
  12	  69
  12	  71
  12	  74
  12	  80
  12	  89
  12	  94
  12	  95
  12	  98
  12	 103
  12	 105
  12	 115
  12	 118
  13	  14
  13	  32
  13	  38
  13	  42
  13	  51
  13	  64
  13	  65
  13	  68
  13	  69
  13	  84
  13	  87
  13	  89
  13	  93
  13	  95
  13	  99
  13	 103
  13	 112
  14	  16
  14	  17
  14	  18
  14	  23
  14	  24
  14	  36
  14	  42
  14	  52
  14	  53
  14	  62
  14	  68
  14	  74
  14	  75
  14	  80
  14	  82
  14	  84
  14	  85
  14	 101
  14	 107
  14	 110
  14	 117
  15	  17
  15	  19
  15	  27
  15	  40
  15	  41
  15	  43
  15	  48
  15	  51
  15	  61
  15	  65
  15	  67
  15	  69
  15	  79
  15	  96
  15	 107
  15	 108
  15	 110
  15	 111
  15	 113
  15	 117
  15	 119
  16	  19
  16	  23
  16	  24
  16	  25
  16	  26
  16	  30
  16	  38
  16	  42
  16	  56
  16	  58
  16	  59
  16	  64
  16	  66
  16	  87
  16	  93
  16	  99
  16	 105
  16	 106
  16	 108
  16	 116
  16	 119
  17	  34
  17	  38
  17	  56
  17	  57
  17	  66
  17	  81
  17	  85
  17	  86
  17	  90
  17	  92
  17	  93
  17	  95
  17	  98
  17	 100
  17	 101
  17	 106
  17	 109
  17	 114
  17	 116
  17	 117
  17	 119
  18	  22
  18	  28
  18	  30
  18	  35
  18	  42
  18	  56
  18	  58
  18	  69
  18	  70
  18	  81
  18	  83
  18	  85
  18	  87
  18	  90
  18	  96
  18	 101
  18	 107
  18	 114
  18	 116
  19	  23
  19	  29
  19	  34
  19	  55
  19	  59
  19	  67
  19	  75
  19	  77
  19	  87
  19	  89
  19	  90
  19	  97
  19	 100
  19	 103
  19	 105
  20	  22
  20	  24
  20	  25
  20	  27
  20	  28
  20	  38
  20	  44
  20	  63
  20	  65
  20	  75
  20	  78
  20	  81
  20	  89
  20	  95
  20	  97
  20	 106
  20	 108
  20	 109
  20	 110
  20	 111
  21	  23
  21	  26
  21	  28
  21	  29
  21	  36
  21	  47
  21	  53
  21	  59
  21	  71
  21	  75
  21	  79
  21	  80
  21	  84
  21	  89
  21	  94
  21	  99
  21	 102
  21	 103
  21	 104
  21	 111
  21	 114
  22	  26
  22	  27
  22	  31
  22	  32
  22	  34
  22	  38
  22	  39
  22	  40
  22	  41
  22	  55
  22	  63
  22	  64
  22	  67
  22	  96
  22	 104
  22	 106
  22	 107
  22	 108
  22	 113
  22	 116
  23	  24
  23	  25
  23	  29
  23	  32
  23	  45
  23	  60
  23	  61
  23	  67
  23	  68
  23	  69
  23	  73
  23	  74
  23	  78
  23	  80
  23	  81
  23	  82
  23	  87
  23	  90
  23	  99
  23	 113
  23	 118
  24	  35
  24	  36
  24	  38
  24	  40
  24	  42
  24	  52
  24	  58
  24	  73
  24	  74
  24	  79
  24	  83
  24	  90
  24	  94
  24	  96
  24	  99
  24	 102
  24	 109
  24	 112
  25	  34
  25	  38
  25	  41
  25	  42
  25	  47
  25	  49
  25	  54
  25	  57
  25	  61
  25	  70
  25	  73
  25	  75
  25	  78
  25	  89
  25	  93
  25	  99
  25	 110
  25	 116
  25	 118
  26	  27
  26	  30
  26	  32
  26	  40
  26	  41
  26	  42
  26	  48
  26	  49
  26	  51
  26	  52
  26	  53
  26	  55
  26	  64
  26	  68
  26	  71
  26	  73
  26	  74
  26	  75
  26	  84
  26	  90
  26	 100
  26	 106
  26	 111
  26	 112
  26	 114
  26	 118
  27	  30
  27	  32
  27	  50
  27	  53
  27	  63
  27	  64
  27	  75
  27	  82
  27	  83
  27	  89
  27	  91
  27	 102
  27	 105
  27	 111
  27	 116
  28	  48
  28	  52
  28	  55
  28	  58
  28	  67
  28	  71
  28	  74
  28	  80
  28	  82
  28	  83
  28	  84
  28	  96
  28	 100
  28	 103
  28	 105
  28	 111
  29	  36
  29	  45
  29	  46
  29	  69
  29	  78
  29	  85
  29	  87
  29	  89
  29	 103
  29	 108
  29	 112
  29	 113
  30	  39
  30	  60
  30	  61
  30	  66
  30	  73
  30	  83
  30	  85
  30	  87
  30	  96
  30	 106
  30	 108
  30	 119
  31	  33
  31	  36
  31	  46
  31	  61
  31	  64
  31	  65
  31	  66
  31	  73
  31	  74
  31	  77
  31	  79
  31	  84
  31	  86
  31	  90
  31	  93
  31	 102
  31	 106
  31	 107
  31	 111
  32	  42
  32	  47
  32	  49
  32	  51
  32	  54
  32	  66
  32	  67
  32	  69
  32	  86
  32	  99
  32	 102
  32	 104
  32	 116
  33	  47
  33	  50
  33	  57
  33	  59
  33	  65
  33	  68
  33	  70
  33	  73
  33	  75
  33	  77
  33	  79
  33	  82
  33	  83
  33	  86
  33	  92
  33	  99
  33	 101
  33	 102
  33	 106
  33	 111
  34	  35
  34	  37
  34	  49
  34	  61
  34	  67
  34	  70
  34	  76
  34	  83
  34	  92
  34	  95
  34	  98
  34	 104
  34	 106
  34	 110
  34	 112
  35	  44
  35	  47
  35	  52
  35	  56
  35	  62
  35	  65
  35	  67
  35	  70
  35	  74
  35	  86
  35	  89
  35	  90
  35	  97
  35	 104
  35	 117
  36	  38
  36	  51
  36	  58
  36	  63
  36	  67
  36	  70
  36	  86
  36	  87
  36	  92
  36	 104
  36	 105
  36	 112
  36	 114
  37	  50
  37	  56
  37	  60
  37	  65
  37	  76
  37	  78
  37	  85
  37	  92
  37	 101
  37	 106
  37	 108
  37	 114
  37	 115
  38	  45
  38	  50
  38	  62
  38	  64
  38	  72
  38	  73
  38	  75
  38	  87
  38	  88
  38	  91
  38	  99
  38	 102
  38	 106
  38	 109
  38	 119
  39	  43
  39	  51
  39	  74
  39	  81
  39	  83
  39	  85
  39	  88
  39	  90
  39	  95
  39	 108
  39	 109
  39	 119
  40	  41
  40	  45
  40	  47
  40	  61
  40	  66
  40	  68
  40	  72
  40	  89
  40	  90
  40	  91
  40	  92
  40	  97
  40	 112
  40	 114
  41	  45
  41	  47
  41	  50
  41	  54
  41	  57
  41	  65
  41	  71
  41	  83
  41	  84
  41	  95
  41	  98
  41	 101
  41	 102
  41	 105
  41	 107
  41	 112
  42	  43
  42	  45
  42	  47
  42	  58
  42	  63
  42	  70
  42	  79
  42	  81
  42	  86
  42	  99
  42	 105
  42	 107
  42	 110
  42	 114
  42	 116
  42	 119
  43	  44
  43	  64
  43	  72
  43	  79
  43	  80
  43	  83
  43	  89
  43	  94
  43	  96
  43	  99
  43	 101
  43	 102
  43	 114
  43	 117
  43	 118
  44	  49
  44	  55
  44	  58
  44	  62
  44	  65
  44	  71
  44	  73
  44	  76
  44	  78
  44	  80
  44	  85
  44	  86
  44	  90
  44	 108
  44	 112
  44	 115
  44	 117
  45	  53
  45	  59
  45	  63
  45	  68
  45	  78
  45	  86
  45	  87
  45	  89
  45	  92
  45	 110
  45	 111
  45	 112
  45	 114
  46	  47
  46	  56
  46	  60
  46	  66
  46	  68
  46	  69
  46	  77
  46	  88
  46	 100
  46	 107
  46	 109
  46	 114
  46	 117
  47	  50
  47	  56
  47	  62
  47	  74
  47	  81
  47	  91
  47	  99
  47	 100
  47	 105
  47	 106
  47	 118
  48	  53
  48	  56
  48	  61
  48	  62
  48	  68
  48	  70
  48	  74
  48	  93
  48	  98
  48	 100
  48	 108
  48	 116
  49	  65
  49	  69
  49	  75
  49	  81
  49	  82
  49	  83
  49	  87
  49	  90
  49	  91
  49	  95
  49	 101
  49	 116
  49	 118
  50	  56
  50	  58
  50	  61
  50	  65
  50	  68
  50	  70
  50	  77
  50	  79
  50	  83
  50	  90
  50	  92
  50	  96
  50	  98
  50	 108
  50	 112
  50	 113
  50	 116
  50	 118
  50	 119
  51	  62
  51	  64
  51	  65
  51	  83
  51	  86
  51	  87
  51	  89
  51	  90
  51	  93
  51	  97
  51	 103
  51	 104
  51	 105
  51	 107
  51	 110
  52	  53
  52	  62
  52	  77
  52	  87
  52	  89
  52	  90
  52	  96
  52	 100
  52	 103
  52	 105
  52	 106
  52	 117
  53	  65
  53	  68
  53	  70
  53	  72
  53	  73
  53	  76
  53	  82
  53	  88
  53	  92
  53	  95
  53	  98
  53	 100
  53	 112
  53	 113
  53	 118
  54	  72
  54	  76
  54	  78
  54	  81
  54	  89
  54	  96
  54	  98
  54	 103
  54	 111
  55	  56
  55	  65
  55	  70
  55	  72
  55	  87
  55	 110
  55	 113
  55	 114
  55	 115
  55	 116
  56	  57
  56	  68
  56	  71
  56	  72
  56	  76
  56	  77
  56	  89
  56	  94
  56	  98
  56	 103
  56	 104
  56	 105
  56	 107
  57	  60
  57	  62
  57	  71
  57	  73
  57	  74
  57	  77
  57	  78
  57	  84
  57	  86
  57	  89
  57	  91
  57	  96
  57	 103
  57	 114
  58	  59
  58	  65
  58	  67
  58	  72
  58	  74
  58	  75
  58	  82
  58	  84
  58	  85
  58	  86
  58	  88
  58	  92
  58	  93
  58	 102
  58	 103
  58	 105
  58	 114
  58	 115
  58	 119
  59	  65
  59	  66
  59	  70
  59	  71
  59	  80
  59	  91
  59	 102
  59	 106
  59	 107
  60	  64
  60	  70
  60	  75
  60	  78
  60	  82
  60	  83
  60	  84
  60	  93
  60	 100
  60	 102
  60	 106
  60	 108
  60	 109
  60	 116
  60	 117
  61	  64
  61	  65
  61	  79
  61	  82
  61	  87
  61	  88
  61	  93
  61	  94
  61	  95
  61	 103
  61	 110
  61	 111
  62	  67
  62	  78
  62	  79
  62	  82
  62	  89
  62	  92
  62	 104
  62	 106
  62	 115
  63	  64
  63	  67
  63	  73
  63	  77
  63	  78
  63	  80
  63	  83
  63	 108
  63	 109
  63	 110
  63	 118
  63	 119
  64	  73
  64	  86
  64	  88
  64	  99
  64	 101
  64	 102
  64	 103
  64	 118
  65	  69
  65	  71
  65	  77
  65	  83
  65	  86
  65	  94
  65	 101
  65	 102
  65	 110
  65	 111
  65	 115
  66	  70
  66	  71
  66	  74
  66	  77
  66	  78
  66	  89
  66	  95
  66	  96
  66	 104
  66	 111
  66	 119
  67	  70
  67	  72
  67	  76
  67	  77
  67	  79
  67	  81
  67	  87
  67	  96
  67	 105
  67	 106
  67	 109
  68	  70
  68	  75
  68	  79
  68	  87
  68	  97
  68	 108
  68	 110
  68	 115
  69	  71
  69	  73
  69	  74
  69	  75
  69	  80
  69	  82
  69	  84
  69	 102
  69	 107
  69	 111
  69	 113
  70	  73
  70	  80
  70	  81
  70	  82
  70	  84
  70	  92
  70	  95
  70	  96
  70	 101
  70	 104
  70	 108
  70	 112
  70	 113
  70	 114
  70	 116
  70	 117
  70	 118
  71	  72
  71	  75
  71	  85
  71	  86
  71	  88
  71	  94
  71	  98
  71	 102
  71	 108
  71	 112
  71	 114
  72	  73
  72	  76
  72	  80
  72	  83
  72	  85
  72	  99
  72	 103
  72	 106
  72	 109
  72	 110
  72	 115
  72	 116
  72	 119
  73	  84
  73	  87
  73	  88
  73	 103
  73	 104
  73	 113
  74	  76
  74	  79
  74	  80
  74	  92
  74	  95
  74	  97
  74	 105
  74	 108
  74	 113
  75	  81
  75	  84
  75	  86
  75	  92
  75	 112
  75	 113
  76	  80
  76	  83
  76	  86
  76	  87
  76	  89
  76	  90
  76	  98
  76	 114
  76	 118
  76	 119
  77	  79
  77	  80
  77	  83
  77	  85
  77	  93
  77	  99
  77	 100
  77	 102
  77	 111
  78	  79
  78	  80
  78	  88
  78	  90
  78	  94
  78	  95
  78	  97
  78	  98
  78	 108
  78	 109
  78	 110
  78	 114
  78	 117
  79	  94
  79	  99
  79	 100
  79	 101
  79	 110
  80	  82
  80	  88
  80	  89
  80	  91
  80	  95
  80	  96
  80	  98
  80	 104
  80	 107
  80	 109
  80	 117
  81	  86
  81	  88
  81	  93
  81	  96
  81	 100
  81	 104
  81	 106
  81	 107
  82	  83
  82	  86
  82	  87
  82	  88
  82	  90
  82	 101
  82	 102
  82	 106
  82	 108
  82	 110
  82	 111
  82	 119
  83	  89
  83	  91
  83	  92
  83	  93
  83	  94
  83	  96
  83	  97
  83	  99
  83	 112
  83	 118
  84	  89
  84	  97
  84	 101
  84	 103
  84	 106
  84	 116
  84	 119
  85	  88
  85	 106
  85	 110
  85	 114
  86	  91
  86	  99
  86	 100
  86	 103
  86	 105
  86	 108
  86	 112
  86	 113
  86	 115
  87	  92
  87	  96
  87	  98
  87	  99
  87	 105
  88	  95
  88	 107
  88	 118
  89	  90
  89	  91
  89	  99
  89	 104
  89	 108
  89	 115
  90	  98
  90	 103
  90	 104
  90	 106
  90	 111
  90	 114
  91	 107
  91	 115
  91	 117
  91	 119
  92	  96
  92	  97
  92	 104
  92	 111
  92	 112
  92	 113
  92	 116
  93	  95
  93	  99
  93	 102
  93	 105
  93	 108
  93	 110
  93	 111
  93	 113
  94	  95
  94	  98
  94	  99
  94	 103
  94	 105
  94	 116
  94	 119
  95	  98
  95	  99
  95	 101
  95	 103
  95	 111
  95	 113
  95	 114
  96	  99
  96	 101
  96	 104
  96	 105
  96	 107
  96	 111
  96	 113
  96	 114
  96	 118
  97	 102
  97	 103
  97	 104
  97	 115
  98	 104
  98	 106
  98	 107
  98	 111
  98	 115
  99	 104
  99	 105
  99	 107
  99	 110
  99	 111
 100	 108
 100	 109
 100	 112
 100	 113
 100	 115
 101	 106
 101	 111
 101	 113
 101	 117
 102	 104
 102	 105
 102	 110
 103	 107
 103	 111
 103	 113
 104	 108
 104	 112
 104	 114
 104	 117
 105	 111
 105	 116
 106	 111
 106	 119
 107	 110
 108	 111
 109	 110
 109	 114
 109	 115
 110	 114
 110	 115
 110	 117
 110	 118
 111	 116
 113	 114
 113	 117
 114	 117
 116	 117
 116	 118
 117	 118
;
